experiments/solver/benchmarks/factorize-589.cnf
c Factorization SAT: find a,b > 1 such that a * b = 589
c Variable a[i] = i+1 (i=0..10), b[i] = 11+i+1 (i=0..10)
c SATISFIABLE iff 589 is composite
c SAT Competition 2026 — Experimental Track — LLM-Guided SAT Solver
c Label: 19×31  Difficulty: easy
p cnf 660 2147
-1 -12 23 0
1 -23 0
12 -23 0
-1 -13 24 0
1 -24 0
13 -24 0
-1 -14 25 0
1 -25 0
14 -25 0
-1 -15 26 0
1 -26 0
15 -26 0
-1 -16 27 0
1 -27 0
16 -27 0
-1 -17 28 0
1 -28 0
17 -28 0
-1 -18 29 0
1 -29 0
18 -29 0
-1 -19 30 0
1 -30 0
19 -30 0
-1 -20 31 0
1 -31 0
20 -31 0
-1 -21 32 0
1 -32 0
21 -32 0
-1 -22 33 0
1 -33 0
22 -33 0
-2 -12 34 0
2 -34 0
12 -34 0
-2 -13 35 0
2 -35 0
13 -35 0
-2 -14 36 0
2 -36 0
14 -36 0
-2 -15 37 0
2 -37 0
15 -37 0
-2 -16 38 0
2 -38 0
16 -38 0
-2 -17 39 0
2 -39 0
17 -39 0
-2 -18 40 0
2 -40 0
18 -40 0
-2 -19 41 0
2 -41 0
19 -41 0
-2 -20 42 0
2 -42 0
20 -42 0
-2 -21 43 0
2 -43 0
21 -43 0
-2 -22 44 0
2 -44 0
22 -44 0
-3 -12 45 0
3 -45 0
12 -45 0
-3 -13 46 0
3 -46 0
13 -46 0
-3 -14 47 0
3 -47 0
14 -47 0
-3 -15 48 0
3 -48 0
15 -48 0
-3 -16 49 0
3 -49 0
16 -49 0
-3 -17 50 0
3 -50 0
17 -50 0
-3 -18 51 0
3 -51 0
18 -51 0
-3 -19 52 0
3 -52 0
19 -52 0
-3 -20 53 0
3 -53 0
20 -53 0
-3 -21 54 0
3 -54 0
21 -54 0
-3 -22 55 0
3 -55 0
22 -55 0
-4 -12 56 0
4 -56 0
12 -56 0
-4 -13 57 0
4 -57 0
13 -57 0
-4 -14 58 0
4 -58 0
14 -58 0
-4 -15 59 0
4 -59 0
15 -59 0
-4 -16 60 0
4 -60 0
16 -60 0
-4 -17 61 0
4 -61 0
17 -61 0
-4 -18 62 0
4 -62 0
18 -62 0
-4 -19 63 0
4 -63 0
19 -63 0
-4 -20 64 0
4 -64 0
20 -64 0
-4 -21 65 0
4 -65 0
21 -65 0
-4 -22 66 0
4 -66 0
22 -66 0
-5 -12 67 0
5 -67 0
12 -67 0
-5 -13 68 0
5 -68 0
13 -68 0
-5 -14 69 0
5 -69 0
14 -69 0
-5 -15 70 0
5 -70 0
15 -70 0
-5 -16 71 0
5 -71 0
16 -71 0
-5 -17 72 0
5 -72 0
17 -72 0
-5 -18 73 0
5 -73 0
18 -73 0
-5 -19 74 0
5 -74 0
19 -74 0
-5 -20 75 0
5 -75 0
20 -75 0
-5 -21 76 0
5 -76 0
21 -76 0
-5 -22 77 0
5 -77 0
22 -77 0
-6 -12 78 0
6 -78 0
12 -78 0
-6 -13 79 0
6 -79 0
13 -79 0
-6 -14 80 0
6 -80 0
14 -80 0
-6 -15 81 0
6 -81 0
15 -81 0
-6 -16 82 0
6 -82 0
16 -82 0
-6 -17 83 0
6 -83 0
17 -83 0
-6 -18 84 0
6 -84 0
18 -84 0
-6 -19 85 0
6 -85 0
19 -85 0
-6 -20 86 0
6 -86 0
20 -86 0
-6 -21 87 0
6 -87 0
21 -87 0
-6 -22 88 0
6 -88 0
22 -88 0
-7 -12 89 0
7 -89 0
12 -89 0
-7 -13 90 0
7 -90 0
13 -90 0
-7 -14 91 0
7 -91 0
14 -91 0
-7 -15 92 0
7 -92 0
15 -92 0
-7 -16 93 0
7 -93 0
16 -93 0
-7 -17 94 0
7 -94 0
17 -94 0
-7 -18 95 0
7 -95 0
18 -95 0
-7 -19 96 0
7 -96 0
19 -96 0
-7 -20 97 0
7 -97 0
20 -97 0
-7 -21 98 0
7 -98 0
21 -98 0
-7 -22 99 0
7 -99 0
22 -99 0
-8 -12 100 0
8 -100 0
12 -100 0
-8 -13 101 0
8 -101 0
13 -101 0
-8 -14 102 0
8 -102 0
14 -102 0
-8 -15 103 0
8 -103 0
15 -103 0
-8 -16 104 0
8 -104 0
16 -104 0
-8 -17 105 0
8 -105 0
17 -105 0
-8 -18 106 0
8 -106 0
18 -106 0
-8 -19 107 0
8 -107 0
19 -107 0
-8 -20 108 0
8 -108 0
20 -108 0
-8 -21 109 0
8 -109 0
21 -109 0
-8 -22 110 0
8 -110 0
22 -110 0
-9 -12 111 0
9 -111 0
12 -111 0
-9 -13 112 0
9 -112 0
13 -112 0
-9 -14 113 0
9 -113 0
14 -113 0
-9 -15 114 0
9 -114 0
15 -114 0
-9 -16 115 0
9 -115 0
16 -115 0
-9 -17 116 0
9 -116 0
17 -116 0
-9 -18 117 0
9 -117 0
18 -117 0
-9 -19 118 0
9 -118 0
19 -118 0
-9 -20 119 0
9 -119 0
20 -119 0
-9 -21 120 0
9 -120 0
21 -120 0
-9 -22 121 0
9 -121 0
22 -121 0
-10 -12 122 0
10 -122 0
12 -122 0
-10 -13 123 0
10 -123 0
13 -123 0
-10 -14 124 0
10 -124 0
14 -124 0
-10 -15 125 0
10 -125 0
15 -125 0
-10 -16 126 0
10 -126 0
16 -126 0
-10 -17 127 0
10 -127 0
17 -127 0
-10 -18 128 0
10 -128 0
18 -128 0
-10 -19 129 0
10 -129 0
19 -129 0
-10 -20 130 0
10 -130 0
20 -130 0
-10 -21 131 0
10 -131 0
21 -131 0
-10 -22 132 0
10 -132 0
22 -132 0
-11 -12 133 0
11 -133 0
12 -133 0
-11 -13 134 0
11 -134 0
13 -134 0
-11 -14 135 0
11 -135 0
14 -135 0
-11 -15 136 0
11 -136 0
15 -136 0
-11 -16 137 0
11 -137 0
16 -137 0
-11 -17 138 0
11 -138 0
17 -138 0
-11 -18 139 0
11 -139 0
18 -139 0
-11 -19 140 0
11 -140 0
19 -140 0
-11 -20 141 0
11 -141 0
20 -141 0
-11 -21 142 0
11 -142 0
21 -142 0
-11 -22 143 0
11 -143 0
22 -143 0
-24 -34 -144 0
24 34 -144 0
24 -34 144 0
-24 34 144 0
-24 -34 145 0
24 -145 0
34 -145 0
-25 -35 -146 0
25 35 -146 0
25 -35 146 0
-25 35 146 0
-146 -45 -147 0
146 45 -147 0
146 -45 147 0
-146 45 147 0
-25 -35 148 0
25 -148 0
35 -148 0
-146 -45 149 0
146 -149 0
45 -149 0
148 149 -150 0
-148 150 0
-149 150 0
-145 -147 -151 0
145 147 -151 0
145 -147 151 0
-145 147 151 0
-145 -147 152 0
145 -152 0
147 -152 0
-26 -36 -153 0
26 36 -153 0
26 -36 153 0
-26 36 153 0
-153 -46 -154 0
153 46 -154 0
153 -46 154 0
-153 46 154 0
-26 -36 155 0
26 -155 0
36 -155 0
-153 -46 156 0
153 -156 0
46 -156 0
155 156 -157 0
-155 157 0
-156 157 0
-56 -150 -158 0
56 150 -158 0
56 -150 158 0
-56 150 158 0
-158 -152 -159 0
158 152 -159 0
158 -152 159 0
-158 152 159 0
-56 -150 160 0
56 -160 0
150 -160 0
-158 -152 161 0
158 -161 0
152 -161 0
160 161 -162 0
-160 162 0
-161 162 0
-154 -159 -163 0
154 159 -163 0
154 -159 163 0
-154 159 163 0
-154 -159 164 0
154 -164 0
159 -164 0
-27 -37 -165 0
27 37 -165 0
27 -37 165 0
-27 37 165 0
-165 -47 -166 0
165 47 -166 0
165 -47 166 0
-165 47 166 0
-27 -37 167 0
27 -167 0
37 -167 0
-165 -47 168 0
165 -168 0
47 -168 0
167 168 -169 0
-167 169 0
-168 169 0
-57 -67 -170 0
57 67 -170 0
57 -67 170 0
-57 67 170 0
-170 -157 -171 0
170 157 -171 0
170 -157 171 0
-170 157 171 0
-57 -67 172 0
57 -172 0
67 -172 0
-170 -157 173 0
170 -173 0
157 -173 0
172 173 -174 0
-172 174 0
-173 174 0
-162 -164 -175 0
162 164 -175 0
162 -164 175 0
-162 164 175 0
-175 -166 -176 0
175 166 -176 0
175 -166 176 0
-175 166 176 0
-162 -164 177 0
162 -177 0
164 -177 0
-175 -166 178 0
175 -178 0
166 -178 0
177 178 -179 0
-177 179 0
-178 179 0
-171 -176 -180 0
171 176 -180 0
171 -176 180 0
-171 176 180 0
-171 -176 181 0
171 -181 0
176 -181 0
-28 -38 -182 0
28 38 -182 0
28 -38 182 0
-28 38 182 0
-182 -48 -183 0
182 48 -183 0
182 -48 183 0
-182 48 183 0
-28 -38 184 0
28 -184 0
38 -184 0
-182 -48 185 0
182 -185 0
48 -185 0
184 185 -186 0
-184 186 0
-185 186 0
-58 -68 -187 0
58 68 -187 0
58 -68 187 0
-58 68 187 0
-187 -78 -188 0
187 78 -188 0
187 -78 188 0
-187 78 188 0
-58 -68 189 0
58 -189 0
68 -189 0
-187 -78 190 0
187 -190 0
78 -190 0
189 190 -191 0
-189 191 0
-190 191 0
-169 -174 -192 0
169 174 -192 0
169 -174 192 0
-169 174 192 0
-192 -179 -193 0
192 179 -193 0
192 -179 193 0
-192 179 193 0
-169 -174 194 0
169 -194 0
174 -194 0
-192 -179 195 0
192 -195 0
179 -195 0
194 195 -196 0
-194 196 0
-195 196 0
-181 -183 -197 0
181 183 -197 0
181 -183 197 0
-181 183 197 0
-197 -188 -198 0
197 188 -198 0
197 -188 198 0
-197 188 198 0
-181 -183 199 0
181 -199 0
183 -199 0
-197 -188 200 0
197 -200 0
188 -200 0
199 200 -201 0
-199 201 0
-200 201 0
-193 -198 -202 0
193 198 -202 0
193 -198 202 0
-193 198 202 0
-193 -198 203 0
193 -203 0
198 -203 0
-29 -39 -204 0
29 39 -204 0
29 -39 204 0
-29 39 204 0
-204 -49 -205 0
204 49 -205 0
204 -49 205 0
-204 49 205 0
-29 -39 206 0
29 -206 0
39 -206 0
-204 -49 207 0
204 -207 0
49 -207 0
206 207 -208 0
-206 208 0
-207 208 0
-59 -69 -209 0
59 69 -209 0
59 -69 209 0
-59 69 209 0
-209 -79 -210 0
209 79 -210 0
209 -79 210 0
-209 79 210 0
-59 -69 211 0
59 -211 0
69 -211 0
-209 -79 212 0
209 -212 0
79 -212 0
211 212 -213 0
-211 213 0
-212 213 0
-89 -186 -214 0
89 186 -214 0
89 -186 214 0
-89 186 214 0
-214 -191 -215 0
214 191 -215 0
214 -191 215 0
-214 191 215 0
-89 -186 216 0
89 -216 0
186 -216 0
-214 -191 217 0
214 -217 0
191 -217 0
216 217 -218 0
-216 218 0
-217 218 0
-196 -201 -219 0
196 201 -219 0
196 -201 219 0
-196 201 219 0
-219 -203 -220 0
219 203 -220 0
219 -203 220 0
-219 203 220 0
-196 -201 221 0
196 -221 0
201 -221 0
-219 -203 222 0
219 -222 0
203 -222 0
221 222 -223 0
-221 223 0
-222 223 0
-205 -210 -224 0
205 210 -224 0
205 -210 224 0
-205 210 224 0
-224 -215 -225 0
224 215 -225 0
224 -215 225 0
-224 215 225 0
-205 -210 226 0
205 -226 0
210 -226 0
-224 -215 227 0
224 -227 0
215 -227 0
226 227 -228 0
-226 228 0
-227 228 0
-220 -225 -229 0
220 225 -229 0
220 -225 229 0
-220 225 229 0
-220 -225 230 0
220 -230 0
225 -230 0
-30 -40 -231 0
30 40 -231 0
30 -40 231 0
-30 40 231 0
-231 -50 -232 0
231 50 -232 0
231 -50 232 0
-231 50 232 0
-30 -40 233 0
30 -233 0
40 -233 0
-231 -50 234 0
231 -234 0
50 -234 0
233 234 -235 0
-233 235 0
-234 235 0
-60 -70 -236 0
60 70 -236 0
60 -70 236 0
-60 70 236 0
-236 -80 -237 0
236 80 -237 0
236 -80 237 0
-236 80 237 0
-60 -70 238 0
60 -238 0
70 -238 0
-236 -80 239 0
236 -239 0
80 -239 0
238 239 -240 0
-238 240 0
-239 240 0
-90 -100 -241 0
90 100 -241 0
90 -100 241 0
-90 100 241 0
-241 -208 -242 0
241 208 -242 0
241 -208 242 0
-241 208 242 0
-90 -100 243 0
90 -243 0
100 -243 0
-241 -208 244 0
241 -244 0
208 -244 0
243 244 -245 0
-243 245 0
-244 245 0
-213 -218 -246 0
213 218 -246 0
213 -218 246 0
-213 218 246 0
-246 -223 -247 0
246 223 -247 0
246 -223 247 0
-246 223 247 0
-213 -218 248 0
213 -248 0
218 -248 0
-246 -223 249 0
246 -249 0
223 -249 0
248 249 -250 0
-248 250 0
-249 250 0
-228 -230 -251 0
228 230 -251 0
228 -230 251 0
-228 230 251 0
-251 -232 -252 0
251 232 -252 0
251 -232 252 0
-251 232 252 0
-228 -230 253 0
228 -253 0
230 -253 0
-251 -232 254 0
251 -254 0
232 -254 0
253 254 -255 0
-253 255 0
-254 255 0
-237 -242 -256 0
237 242 -256 0
237 -242 256 0
-237 242 256 0
-256 -247 -257 0
256 247 -257 0
256 -247 257 0
-256 247 257 0
-237 -242 258 0
237 -258 0
242 -258 0
-256 -247 259 0
256 -259 0
247 -259 0
258 259 -260 0
-258 260 0
-259 260 0
-252 -257 -261 0
252 257 -261 0
252 -257 261 0
-252 257 261 0
-252 -257 262 0
252 -262 0
257 -262 0
-31 -41 -263 0
31 41 -263 0
31 -41 263 0
-31 41 263 0
-263 -51 -264 0
263 51 -264 0
263 -51 264 0
-263 51 264 0
-31 -41 265 0
31 -265 0
41 -265 0
-263 -51 266 0
263 -266 0
51 -266 0
265 266 -267 0
-265 267 0
-266 267 0
-61 -71 -268 0
61 71 -268 0
61 -71 268 0
-61 71 268 0
-268 -81 -269 0
268 81 -269 0
268 -81 269 0
-268 81 269 0
-61 -71 270 0
61 -270 0
71 -270 0
-268 -81 271 0
268 -271 0
81 -271 0
270 271 -272 0
-270 272 0
-271 272 0
-91 -101 -273 0
91 101 -273 0
91 -101 273 0
-91 101 273 0
-273 -111 -274 0
273 111 -274 0
273 -111 274 0
-273 111 274 0
-91 -101 275 0
91 -275 0
101 -275 0
-273 -111 276 0
273 -276 0
111 -276 0
275 276 -277 0
-275 277 0
-276 277 0
-235 -240 -278 0
235 240 -278 0
235 -240 278 0
-235 240 278 0
-278 -245 -279 0
278 245 -279 0
278 -245 279 0
-278 245 279 0
-235 -240 280 0
235 -280 0
240 -280 0
-278 -245 281 0
278 -281 0
245 -281 0
280 281 -282 0
-280 282 0
-281 282 0
-250 -255 -283 0
250 255 -283 0
250 -255 283 0
-250 255 283 0
-283 -260 -284 0
283 260 -284 0
283 -260 284 0
-283 260 284 0
-250 -255 285 0
250 -285 0
255 -285 0
-283 -260 286 0
283 -286 0
260 -286 0
285 286 -287 0
-285 287 0
-286 287 0
-262 -264 -288 0
262 264 -288 0
262 -264 288 0
-262 264 288 0
-288 -269 -289 0
288 269 -289 0
288 -269 289 0
-288 269 289 0
-262 -264 290 0
262 -290 0
264 -290 0
-288 -269 291 0
288 -291 0
269 -291 0
290 291 -292 0
-290 292 0
-291 292 0
-274 -279 -293 0
274 279 -293 0
274 -279 293 0
-274 279 293 0
-293 -284 -294 0
293 284 -294 0
293 -284 294 0
-293 284 294 0
-274 -279 295 0
274 -295 0
279 -295 0
-293 -284 296 0
293 -296 0
284 -296 0
295 296 -297 0
-295 297 0
-296 297 0
-289 -294 -298 0
289 294 -298 0
289 -294 298 0
-289 294 298 0
-289 -294 299 0
289 -299 0
294 -299 0
-32 -42 -300 0
32 42 -300 0
32 -42 300 0
-32 42 300 0
-300 -52 -301 0
300 52 -301 0
300 -52 301 0
-300 52 301 0
-32 -42 302 0
32 -302 0
42 -302 0
-300 -52 303 0
300 -303 0
52 -303 0
302 303 -304 0
-302 304 0
-303 304 0
-62 -72 -305 0
62 72 -305 0
62 -72 305 0
-62 72 305 0
-305 -82 -306 0
305 82 -306 0
305 -82 306 0
-305 82 306 0
-62 -72 307 0
62 -307 0
72 -307 0
-305 -82 308 0
305 -308 0
82 -308 0
307 308 -309 0
-307 309 0
-308 309 0
-92 -102 -310 0
92 102 -310 0
92 -102 310 0
-92 102 310 0
-310 -112 -311 0
310 112 -311 0
310 -112 311 0
-310 112 311 0
-92 -102 312 0
92 -312 0
102 -312 0
-310 -112 313 0
310 -313 0
112 -313 0
312 313 -314 0
-312 314 0
-313 314 0
-122 -267 -315 0
122 267 -315 0
122 -267 315 0
-122 267 315 0
-315 -272 -316 0
315 272 -316 0
315 -272 316 0
-315 272 316 0
-122 -267 317 0
122 -317 0
267 -317 0
-315 -272 318 0
315 -318 0
272 -318 0
317 318 -319 0
-317 319 0
-318 319 0
-277 -282 -320 0
277 282 -320 0
277 -282 320 0
-277 282 320 0
-320 -287 -321 0
320 287 -321 0
320 -287 321 0
-320 287 321 0
-277 -282 322 0
277 -322 0
282 -322 0
-320 -287 323 0
320 -323 0
287 -323 0
322 323 -324 0
-322 324 0
-323 324 0
-292 -297 -325 0
292 297 -325 0
292 -297 325 0
-292 297 325 0
-325 -299 -326 0
325 299 -326 0
325 -299 326 0
-325 299 326 0
-292 -297 327 0
292 -327 0
297 -327 0
-325 -299 328 0
325 -328 0
299 -328 0
327 328 -329 0
-327 329 0
-328 329 0
-301 -306 -330 0
301 306 -330 0
301 -306 330 0
-301 306 330 0
-330 -311 -331 0
330 311 -331 0
330 -311 331 0
-330 311 331 0
-301 -306 332 0
301 -332 0
306 -332 0
-330 -311 333 0
330 -333 0
311 -333 0
332 333 -334 0
-332 334 0
-333 334 0
-316 -321 -335 0
316 321 -335 0
316 -321 335 0
-316 321 335 0
-335 -326 -336 0
335 326 -336 0
335 -326 336 0
-335 326 336 0
-316 -321 337 0
316 -337 0
321 -337 0
-335 -326 338 0
335 -338 0
326 -338 0
337 338 -339 0
-337 339 0
-338 339 0
-331 -336 -340 0
331 336 -340 0
331 -336 340 0
-331 336 340 0
-331 -336 341 0
331 -341 0
336 -341 0
-33 -43 -342 0
33 43 -342 0
33 -43 342 0
-33 43 342 0
-342 -53 -343 0
342 53 -343 0
342 -53 343 0
-342 53 343 0
-33 -43 344 0
33 -344 0
43 -344 0
-342 -53 345 0
342 -345 0
53 -345 0
344 345 -346 0
-344 346 0
-345 346 0
-63 -73 -347 0
63 73 -347 0
63 -73 347 0
-63 73 347 0
-347 -83 -348 0
347 83 -348 0
347 -83 348 0
-347 83 348 0
-63 -73 349 0
63 -349 0
73 -349 0
-347 -83 350 0
347 -350 0
83 -350 0
349 350 -351 0
-349 351 0
-350 351 0
-93 -103 -352 0
93 103 -352 0
93 -103 352 0
-93 103 352 0
-352 -113 -353 0
352 113 -353 0
352 -113 353 0
-352 113 353 0
-93 -103 354 0
93 -354 0
103 -354 0
-352 -113 355 0
352 -355 0
113 -355 0
354 355 -356 0
-354 356 0
-355 356 0
-123 -133 -357 0
123 133 -357 0
123 -133 357 0
-123 133 357 0
-357 -304 -358 0
357 304 -358 0
357 -304 358 0
-357 304 358 0
-123 -133 359 0
123 -359 0
133 -359 0
-357 -304 360 0
357 -360 0
304 -360 0
359 360 -361 0
-359 361 0
-360 361 0
-309 -314 -362 0
309 314 -362 0
309 -314 362 0
-309 314 362 0
-362 -319 -363 0
362 319 -363 0
362 -319 363 0
-362 319 363 0
-309 -314 364 0
309 -364 0
314 -364 0
-362 -319 365 0
362 -365 0
319 -365 0
364 365 -366 0
-364 366 0
-365 366 0
-324 -329 -367 0
324 329 -367 0
324 -329 367 0
-324 329 367 0
-367 -334 -368 0
367 334 -368 0
367 -334 368 0
-367 334 368 0
-324 -329 369 0
324 -369 0
329 -369 0
-367 -334 370 0
367 -370 0
334 -370 0
369 370 -371 0
-369 371 0
-370 371 0
-339 -341 -372 0
339 341 -372 0
339 -341 372 0
-339 341 372 0
-372 -343 -373 0
372 343 -373 0
372 -343 373 0
-372 343 373 0
-339 -341 374 0
339 -374 0
341 -374 0
-372 -343 375 0
372 -375 0
343 -375 0
374 375 -376 0
-374 376 0
-375 376 0
-348 -353 -377 0
348 353 -377 0
348 -353 377 0
-348 353 377 0
-377 -358 -378 0
377 358 -378 0
377 -358 378 0
-377 358 378 0
-348 -353 379 0
348 -379 0
353 -379 0
-377 -358 380 0
377 -380 0
358 -380 0
379 380 -381 0
-379 381 0
-380 381 0
-363 -368 -382 0
363 368 -382 0
363 -368 382 0
-363 368 382 0
-382 -373 -383 0
382 373 -383 0
382 -373 383 0
-382 373 383 0
-363 -368 384 0
363 -384 0
368 -384 0
-382 -373 385 0
382 -385 0
373 -385 0
384 385 -386 0
-384 386 0
-385 386 0
-378 -383 -387 0
378 383 -387 0
378 -383 387 0
-378 383 387 0
-378 -383 388 0
378 -388 0
383 -388 0
-44 -54 -389 0
44 54 -389 0
44 -54 389 0
-44 54 389 0
-389 -64 -390 0
389 64 -390 0
389 -64 390 0
-389 64 390 0
-44 -54 391 0
44 -391 0
54 -391 0
-389 -64 392 0
389 -392 0
64 -392 0
391 392 -393 0
-391 393 0
-392 393 0
-74 -84 -394 0
74 84 -394 0
74 -84 394 0
-74 84 394 0
-394 -94 -395 0
394 94 -395 0
394 -94 395 0
-394 94 395 0
-74 -84 396 0
74 -396 0
84 -396 0
-394 -94 397 0
394 -397 0
94 -397 0
396 397 -398 0
-396 398 0
-397 398 0
-104 -114 -399 0
104 114 -399 0
104 -114 399 0
-104 114 399 0
-399 -124 -400 0
399 124 -400 0
399 -124 400 0
-399 124 400 0
-104 -114 401 0
104 -401 0
114 -401 0
-399 -124 402 0
399 -402 0
124 -402 0
401 402 -403 0
-401 403 0
-402 403 0
-134 -346 -404 0
134 346 -404 0
134 -346 404 0
-134 346 404 0
-404 -351 -405 0
404 351 -405 0
404 -351 405 0
-404 351 405 0
-134 -346 406 0
134 -406 0
346 -406 0
-404 -351 407 0
404 -407 0
351 -407 0
406 407 -408 0
-406 408 0
-407 408 0
-356 -361 -409 0
356 361 -409 0
356 -361 409 0
-356 361 409 0
-409 -366 -410 0
409 366 -410 0
409 -366 410 0
-409 366 410 0
-356 -361 411 0
356 -411 0
361 -411 0
-409 -366 412 0
409 -412 0
366 -412 0
411 412 -413 0
-411 413 0
-412 413 0
-371 -376 -414 0
371 376 -414 0
371 -376 414 0
-371 376 414 0
-414 -381 -415 0
414 381 -415 0
414 -381 415 0
-414 381 415 0
-371 -376 416 0
371 -416 0
376 -416 0
-414 -381 417 0
414 -417 0
381 -417 0
416 417 -418 0
-416 418 0
-417 418 0
-386 -388 -419 0
386 388 -419 0
386 -388 419 0
-386 388 419 0
-419 -390 -420 0
419 390 -420 0
419 -390 420 0
-419 390 420 0
-386 -388 421 0
386 -421 0
388 -421 0
-419 -390 422 0
419 -422 0
390 -422 0
421 422 -423 0
-421 423 0
-422 423 0
-395 -400 -424 0
395 400 -424 0
395 -400 424 0
-395 400 424 0
-424 -405 -425 0
424 405 -425 0
424 -405 425 0
-424 405 425 0
-395 -400 426 0
395 -426 0
400 -426 0
-424 -405 427 0
424 -427 0
405 -427 0
426 427 -428 0
-426 428 0
-427 428 0
-410 -415 -429 0
410 415 -429 0
410 -415 429 0
-410 415 429 0
-429 -420 -430 0
429 420 -430 0
429 -420 430 0
-429 420 430 0
-410 -415 431 0
410 -431 0
415 -431 0
-429 -420 432 0
429 -432 0
420 -432 0
431 432 -433 0
-431 433 0
-432 433 0
-425 -430 -434 0
425 430 -434 0
425 -430 434 0
-425 430 434 0
-425 -430 435 0
425 -435 0
430 -435 0
-55 -65 -436 0
55 65 -436 0
55 -65 436 0
-55 65 436 0
-436 -75 -437 0
436 75 -437 0
436 -75 437 0
-436 75 437 0
-55 -65 438 0
55 -438 0
65 -438 0
-436 -75 439 0
436 -439 0
75 -439 0
438 439 -440 0
-438 440 0
-439 440 0
-85 -95 -441 0
85 95 -441 0
85 -95 441 0
-85 95 441 0
-441 -105 -442 0
441 105 -442 0
441 -105 442 0
-441 105 442 0
-85 -95 443 0
85 -443 0
95 -443 0
-441 -105 444 0
441 -444 0
105 -444 0
443 444 -445 0
-443 445 0
-444 445 0
-115 -125 -446 0
115 125 -446 0
115 -125 446 0
-115 125 446 0
-446 -135 -447 0
446 135 -447 0
446 -135 447 0
-446 135 447 0
-115 -125 448 0
115 -448 0
125 -448 0
-446 -135 449 0
446 -449 0
135 -449 0
448 449 -450 0
-448 450 0
-449 450 0
-393 -398 -451 0
393 398 -451 0
393 -398 451 0
-393 398 451 0
-451 -403 -452 0
451 403 -452 0
451 -403 452 0
-451 403 452 0
-393 -398 453 0
393 -453 0
398 -453 0
-451 -403 454 0
451 -454 0
403 -454 0
453 454 -455 0
-453 455 0
-454 455 0
-408 -413 -456 0
408 413 -456 0
408 -413 456 0
-408 413 456 0
-456 -418 -457 0
456 418 -457 0
456 -418 457 0
-456 418 457 0
-408 -413 458 0
408 -458 0
413 -458 0
-456 -418 459 0
456 -459 0
418 -459 0
458 459 -460 0
-458 460 0
-459 460 0
-423 -428 -461 0
423 428 -461 0
423 -428 461 0
-423 428 461 0
-461 -433 -462 0
461 433 -462 0
461 -433 462 0
-461 433 462 0
-423 -428 463 0
423 -463 0
428 -463 0
-461 -433 464 0
461 -464 0
433 -464 0
463 464 -465 0
-463 465 0
-464 465 0
-435 -437 -466 0
435 437 -466 0
435 -437 466 0
-435 437 466 0
-466 -442 -467 0
466 442 -467 0
466 -442 467 0
-466 442 467 0
-435 -437 468 0
435 -468 0
437 -468 0
-466 -442 469 0
466 -469 0
442 -469 0
468 469 -470 0
-468 470 0
-469 470 0
-447 -452 -471 0
447 452 -471 0
447 -452 471 0
-447 452 471 0
-471 -457 -472 0
471 457 -472 0
471 -457 472 0
-471 457 472 0
-447 -452 473 0
447 -473 0
452 -473 0
-471 -457 474 0
471 -474 0
457 -474 0
473 474 -475 0
-473 475 0
-474 475 0
-462 -467 -476 0
462 467 -476 0
462 -467 476 0
-462 467 476 0
-476 -472 -477 0
476 472 -477 0
476 -472 477 0
-476 472 477 0
-462 -467 478 0
462 -478 0
467 -478 0
-476 -472 479 0
476 -479 0
472 -479 0
478 479 -480 0
-478 480 0
-479 480 0
-66 -76 -481 0
66 76 -481 0
66 -76 481 0
-66 76 481 0
-481 -86 -482 0
481 86 -482 0
481 -86 482 0
-481 86 482 0
-66 -76 483 0
66 -483 0
76 -483 0
-481 -86 484 0
481 -484 0
86 -484 0
483 484 -485 0
-483 485 0
-484 485 0
-96 -106 -486 0
96 106 -486 0
96 -106 486 0
-96 106 486 0
-486 -116 -487 0
486 116 -487 0
486 -116 487 0
-486 116 487 0
-96 -106 488 0
96 -488 0
106 -488 0
-486 -116 489 0
486 -489 0
116 -489 0
488 489 -490 0
-488 490 0
-489 490 0
-126 -136 -491 0
126 136 -491 0
126 -136 491 0
-126 136 491 0
-491 -440 -492 0
491 440 -492 0
491 -440 492 0
-491 440 492 0
-126 -136 493 0
126 -493 0
136 -493 0
-491 -440 494 0
491 -494 0
440 -494 0
493 494 -495 0
-493 495 0
-494 495 0
-445 -450 -496 0
445 450 -496 0
445 -450 496 0
-445 450 496 0
-496 -455 -497 0
496 455 -497 0
496 -455 497 0
-496 455 497 0
-445 -450 498 0
445 -498 0
450 -498 0
-496 -455 499 0
496 -499 0
455 -499 0
498 499 -500 0
-498 500 0
-499 500 0
-460 -465 -501 0
460 465 -501 0
460 -465 501 0
-460 465 501 0
-501 -470 -502 0
501 470 -502 0
501 -470 502 0
-501 470 502 0
-460 -465 503 0
460 -503 0
465 -503 0
-501 -470 504 0
501 -504 0
470 -504 0
503 504 -505 0
-503 505 0
-504 505 0
-475 -480 -506 0
475 480 -506 0
475 -480 506 0
-475 480 506 0
-506 -482 -507 0
506 482 -507 0
506 -482 507 0
-506 482 507 0
-475 -480 508 0
475 -508 0
480 -508 0
-506 -482 509 0
506 -509 0
482 -509 0
508 509 -510 0
-508 510 0
-509 510 0
-487 -492 -511 0
487 492 -511 0
487 -492 511 0
-487 492 511 0
-511 -497 -512 0
511 497 -512 0
511 -497 512 0
-511 497 512 0
-487 -492 513 0
487 -513 0
492 -513 0
-511 -497 514 0
511 -514 0
497 -514 0
513 514 -515 0
-513 515 0
-514 515 0
-502 -507 -516 0
502 507 -516 0
502 -507 516 0
-502 507 516 0
-516 -512 -517 0
516 512 -517 0
516 -512 517 0
-516 512 517 0
-502 -507 518 0
502 -518 0
507 -518 0
-516 -512 519 0
516 -519 0
512 -519 0
518 519 -520 0
-518 520 0
-519 520 0
-77 -87 -521 0
77 87 -521 0
77 -87 521 0
-77 87 521 0
-521 -97 -522 0
521 97 -522 0
521 -97 522 0
-521 97 522 0
-77 -87 523 0
77 -523 0
87 -523 0
-521 -97 524 0
521 -524 0
97 -524 0
523 524 -525 0
-523 525 0
-524 525 0
-107 -117 -526 0
107 117 -526 0
107 -117 526 0
-107 117 526 0
-526 -127 -527 0
526 127 -527 0
526 -127 527 0
-526 127 527 0
-107 -117 528 0
107 -528 0
117 -528 0
-526 -127 529 0
526 -529 0
127 -529 0
528 529 -530 0
-528 530 0
-529 530 0
-137 -485 -531 0
137 485 -531 0
137 -485 531 0
-137 485 531 0
-531 -490 -532 0
531 490 -532 0
531 -490 532 0
-531 490 532 0
-137 -485 533 0
137 -533 0
485 -533 0
-531 -490 534 0
531 -534 0
490 -534 0
533 534 -535 0
-533 535 0
-534 535 0
-495 -500 -536 0
495 500 -536 0
495 -500 536 0
-495 500 536 0
-536 -505 -537 0
536 505 -537 0
536 -505 537 0
-536 505 537 0
-495 -500 538 0
495 -538 0
500 -538 0
-536 -505 539 0
536 -539 0
505 -539 0
538 539 -540 0
-538 540 0
-539 540 0
-510 -515 -541 0
510 515 -541 0
510 -515 541 0
-510 515 541 0
-541 -520 -542 0
541 520 -542 0
541 -520 542 0
-541 520 542 0
-510 -515 543 0
510 -543 0
515 -543 0
-541 -520 544 0
541 -544 0
520 -544 0
543 544 -545 0
-543 545 0
-544 545 0
-522 -527 -546 0
522 527 -546 0
522 -527 546 0
-522 527 546 0
-546 -532 -547 0
546 532 -547 0
546 -532 547 0
-546 532 547 0
-522 -527 548 0
522 -548 0
527 -548 0
-546 -532 549 0
546 -549 0
532 -549 0
548 549 -550 0
-548 550 0
-549 550 0
-537 -542 -551 0
537 542 -551 0
537 -542 551 0
-537 542 551 0
-551 -547 -552 0
551 547 -552 0
551 -547 552 0
-551 547 552 0
-537 -542 553 0
537 -553 0
542 -553 0
-551 -547 554 0
551 -554 0
547 -554 0
553 554 -555 0
-553 555 0
-554 555 0
-88 -98 -556 0
88 98 -556 0
88 -98 556 0
-88 98 556 0
-556 -108 -557 0
556 108 -557 0
556 -108 557 0
-556 108 557 0
-88 -98 558 0
88 -558 0
98 -558 0
-556 -108 559 0
556 -559 0
108 -559 0
558 559 -560 0
-558 560 0
-559 560 0
-118 -128 -561 0
118 128 -561 0
118 -128 561 0
-118 128 561 0
-561 -138 -562 0
561 138 -562 0
561 -138 562 0
-561 138 562 0
-118 -128 563 0
118 -563 0
128 -563 0
-561 -138 564 0
561 -564 0
138 -564 0
563 564 -565 0
-563 565 0
-564 565 0
-525 -530 -566 0
525 530 -566 0
525 -530 566 0
-525 530 566 0
-566 -535 -567 0
566 535 -567 0
566 -535 567 0
-566 535 567 0
-525 -530 568 0
525 -568 0
530 -568 0
-566 -535 569 0
566 -569 0
535 -569 0
568 569 -570 0
-568 570 0
-569 570 0
-540 -545 -571 0
540 545 -571 0
540 -545 571 0
-540 545 571 0
-571 -550 -572 0
571 550 -572 0
571 -550 572 0
-571 550 572 0
-540 -545 573 0
540 -573 0
545 -573 0
-571 -550 574 0
571 -574 0
550 -574 0
573 574 -575 0
-573 575 0
-574 575 0
-555 -557 -576 0
555 557 -576 0
555 -557 576 0
-555 557 576 0
-576 -562 -577 0
576 562 -577 0
576 -562 577 0
-576 562 577 0
-555 -557 578 0
555 -578 0
557 -578 0
-576 -562 579 0
576 -579 0
562 -579 0
578 579 -580 0
-578 580 0
-579 580 0
-567 -572 -581 0
567 572 -581 0
567 -572 581 0
-567 572 581 0
-581 -577 -582 0
581 577 -582 0
581 -577 582 0
-581 577 582 0
-567 -572 583 0
567 -583 0
572 -583 0
-581 -577 584 0
581 -584 0
577 -584 0
583 584 -585 0
-583 585 0
-584 585 0
-99 -109 -586 0
99 109 -586 0
99 -109 586 0
-99 109 586 0
-586 -119 -587 0
586 119 -587 0
586 -119 587 0
-586 119 587 0
-99 -109 588 0
99 -588 0
109 -588 0
-586 -119 589 0
586 -589 0
119 -589 0
588 589 -590 0
-588 590 0
-589 590 0
-129 -139 -591 0
129 139 -591 0
129 -139 591 0
-129 139 591 0
-591 -560 -592 0
591 560 -592 0
591 -560 592 0
-591 560 592 0
-129 -139 593 0
129 -593 0
139 -593 0
-591 -560 594 0
591 -594 0
560 -594 0
593 594 -595 0
-593 595 0
-594 595 0
-565 -570 -596 0
565 570 -596 0
565 -570 596 0
-565 570 596 0
-596 -575 -597 0
596 575 -597 0
596 -575 597 0
-596 575 597 0
-565 -570 598 0
565 -598 0
570 -598 0
-596 -575 599 0
596 -599 0
575 -599 0
598 599 -600 0
-598 600 0
-599 600 0
-580 -585 -601 0
580 585 -601 0
580 -585 601 0
-580 585 601 0
-601 -587 -602 0
601 587 -602 0
601 -587 602 0
-601 587 602 0
-580 -585 603 0
580 -603 0
585 -603 0
-601 -587 604 0
601 -604 0
587 -604 0
603 604 -605 0
-603 605 0
-604 605 0
-592 -597 -606 0
592 597 -606 0
592 -597 606 0
-592 597 606 0
-606 -602 -607 0
606 602 -607 0
606 -602 607 0
-606 602 607 0
-592 -597 608 0
592 -608 0
597 -608 0
-606 -602 609 0
606 -609 0
602 -609 0
608 609 -610 0
-608 610 0
-609 610 0
-110 -120 -611 0
110 120 -611 0
110 -120 611 0
-110 120 611 0
-611 -130 -612 0
611 130 -612 0
611 -130 612 0
-611 130 612 0
-110 -120 613 0
110 -613 0
120 -613 0
-611 -130 614 0
611 -614 0
130 -614 0
613 614 -615 0
-613 615 0
-614 615 0
-140 -590 -616 0
140 590 -616 0
140 -590 616 0
-140 590 616 0
-616 -595 -617 0
616 595 -617 0
616 -595 617 0
-616 595 617 0
-140 -590 618 0
140 -618 0
590 -618 0
-616 -595 619 0
616 -619 0
595 -619 0
618 619 -620 0
-618 620 0
-619 620 0
-600 -605 -621 0
600 605 -621 0
600 -605 621 0
-600 605 621 0
-621 -610 -622 0
621 610 -622 0
621 -610 622 0
-621 610 622 0
-600 -605 623 0
600 -623 0
605 -623 0
-621 -610 624 0
621 -624 0
610 -624 0
623 624 -625 0
-623 625 0
-624 625 0
-612 -617 -626 0
612 617 -626 0
612 -617 626 0
-612 617 626 0
-626 -622 -627 0
626 622 -627 0
626 -622 627 0
-626 622 627 0
-612 -617 628 0
612 -628 0
617 -628 0
-626 -622 629 0
626 -629 0
622 -629 0
628 629 -630 0
-628 630 0
-629 630 0
-121 -131 -631 0
121 131 -631 0
121 -131 631 0
-121 131 631 0
-631 -141 -632 0
631 141 -632 0
631 -141 632 0
-631 141 632 0
-121 -131 633 0
121 -633 0
131 -633 0
-631 -141 634 0
631 -634 0
141 -634 0
633 634 -635 0
-633 635 0
-634 635 0
-615 -620 -636 0
615 620 -636 0
615 -620 636 0
-615 620 636 0
-636 -625 -637 0
636 625 -637 0
636 -625 637 0
-636 625 637 0
-615 -620 638 0
615 -638 0
620 -638 0
-636 -625 639 0
636 -639 0
625 -639 0
638 639 -640 0
-638 640 0
-639 640 0
-630 -632 -641 0
630 632 -641 0
630 -632 641 0
-630 632 641 0
-641 -637 -642 0
641 637 -642 0
641 -637 642 0
-641 637 642 0
-630 -632 643 0
630 -643 0
632 -643 0
-641 -637 644 0
641 -644 0
637 -644 0
643 644 -645 0
-643 645 0
-644 645 0
-132 -142 -646 0
132 142 -646 0
132 -142 646 0
-132 142 646 0
-646 -635 -647 0
646 635 -647 0
646 -635 647 0
-646 635 647 0
-132 -142 648 0
132 -648 0
142 -648 0
-646 -635 649 0
646 -649 0
635 -649 0
648 649 -650 0
-648 650 0
-649 650 0
-640 -645 -651 0
640 645 -651 0
640 -645 651 0
-640 645 651 0
-651 -647 -652 0
651 647 -652 0
651 -647 652 0
-651 647 652 0
-640 -645 653 0
640 -653 0
645 -653 0
-651 -647 654 0
651 -654 0
647 -654 0
653 654 -655 0
-653 655 0
-654 655 0
-143 -650 -656 0
143 650 -656 0
143 -650 656 0
-143 650 656 0
-656 -655 -657 0
656 655 -657 0
656 -655 657 0
-656 655 657 0
-143 -650 658 0
143 -658 0
650 -658 0
-656 -655 659 0
656 -659 0
655 -659 0
658 659 -660 0
-658 660 0
-659 660 0
23 0
-144 0
151 0
163 0
-180 0
-202 0
229 0
-261 0
-298 0
340 0
-387 0
-434 0
-477 0
-517 0
-552 0
-582 0
-607 0
-627 0
-642 0
-652 0
-657 0
-660 0
2 3 4 5 6 7 8 9 10 11 0
13 14 15 16 17 18 19 20 21 22 0
